NAME: random-59-11134
TYPE: TSP
COMMENT: size=59 seed=11134
DIMENSION: 120
EDGE_WEIGHT_TYPE: EUC_2D
NODE_COORD_SECTION
+0 138 158
-0 138 158
+1 263 709
-1 515 626
+2 421 324
-2 917 509
+3 531 180
-3 293 43
+4 434 691
-4 164 640
+5 346 684
-5 627 765
+6 653 720
-6 385 92
+7 87 761
-7 653 242
+8 74 162
-8 375 684
+9 365 579
-9 588 665
+10 328 515
-10 900 635
+11 652 407
-11 848 244
+12 704 65
-12 636 109
+13 263 676
-13 512 769
+14 464 146
-14 439 924
+15 164 45
-15 610 72
+16 39 449
-16 857 202
+17 408 835
-17 554 235
+18 95 164
-18 904 439
+19 470 445
-19 684 621
+20 658 31
-20 414 879
+21 729 307
-21 611 964
+22 265 161
-22 580 212
+23 194 230
-23 861 751
+24 508 415
-24 986 921
+25 780 975
-25 255 657
+26 341 464
-26 67 102
+27 746 286
-27 114 797
+28 252 151
-28 911 307
+29 662 370
-29 533 764
+30 429 759
-30 245 108
+31 477 471
-31 168 883
+32 746 763
-32 103 690
+33 557 26
-33 913 562
+34 222 34
-34 475 876
+35 270 215
-35 668 735
+36 188 363
-36 147 3
+37 761 771
-37 846 232
+38 989 818
-38 398 0
+39 456 443
-39 383 57
+40 409 116
-40 844 666
+41 87 363
-41 524 189
+42 841 60
-42 664 376
+43 820 57
-43 319 711
+44 101 218
-44 289 255
+45 113 433
-45 566 895
+46 113 378
-46 262 597
+47 234 432
-47 487 161
+48 942 616
-48 245 94
+49 604 6
-49 509 614
+50 559 284
-50 82 42
+51 462 223
-51 793 53
+52 949 175
-52 715 225
+53 897 265
-53 42 625
+54 267 216
-54 48 586
+55 235 597
-55 104 909
+56 657 205
-56 965 683
+57 517 699
-57 768 917
+58 364 653
-58 112 21
+59 385 8
-59 657 736
PRECEDENCE_SECTION
+0 -0
+1 -1
+2 -2
+3 -3
+4 -4
+5 -5
+6 -6
+7 -7
+8 -8
+9 -9
+10 -10
+11 -11
+12 -12
+13 -13
+14 -14
+15 -15
+16 -16
+17 -17
+18 -18
+19 -19
+20 -20
+21 -21
+22 -22
+23 -23
+24 -24
+25 -25
+26 -26
+27 -27
+28 -28
+29 -29
+30 -30
+31 -31
+32 -32
+33 -33
+34 -34
+35 -35
+36 -36
+37 -37
+38 -38
+39 -39
+40 -40
+41 -41
+42 -42
+43 -43
+44 -44
+45 -45
+46 -46
+47 -47
+48 -48
+49 -49
+50 -50
+51 -51
+52 -52
+53 -53
+54 -54
+55 -55
+56 -56
+57 -57
+58 -58
+59 -59
EOF
